NAME : gr21.3482.tour
COMMENT : Cost = 0_3482
COMMENT : Found by LKH [Keld Helsgaun] Thu Nov 16 16:26:26 2017
TYPE : TOUR
DIMENSION : 25
TOUR_SECTION
1
4
22
7
23
8
24
11
20
19
17
10
18
13
14
15
21
2
3
9
5
16
6
25
12
-1
EOF
